HUN,8,6,221
0,23,1,26,4,23,3,20,5,13,2,24
2,18,0,5,1,3,5,11,4,20,3,25
5,1,1,22,0,25,2,6,4,24,3,16
4,20,0,3,3,25,5,4,1,27,2,19
0,22,5,7,3,4,4,2,1,6,2,30
1,29,5,4,3,6,0,15,2,3,4,25
0,22,5,9,4,27,2,10,1,1,3,28
1,20,5,15,0,19,4,2,2,4,3,15
